SYSTEM=tin_ni_interf_surf_ni_sub_Nb #jobname
PREC=Normal
ALGO=Normal
LREAL=Auto
LWAVE=.FALSE.
LORBIT=11
ENCUT=450
ISPIN=2
ISIF=2
IBRION=1
NELM=100
NSW=100
EDIFFG=0.001
ADDGRID=.TRUE.
ISMEAR=-1
EDIFF=1e-05
LCHARG=.TRUE.
NCORE=8
MAGMOM=0.0   -0.0   0.002   0.003   0.0   -0.0   0.002   0.004   0.0   -0.0   0.002   0.019   0.0   -0.0   0.002   0.013   0.0   -0.0   0.002   0.004   0.0   -0.0   0.002   0.018   -0.0   -0.0   0.002   0.027   0.0   -0.0   0.002   0.008   0.0   -0.0   0.002   0.019   -0.0   -0.0   0.002   0.027   -0.0   -0.0   0.001   0.022   0.0   -0.0   0.001   0.019   0.0   -0.0   0.002   0.012   0.0   -0.0   0.002   0.008   0.0   -0.0   0.001   0.019   0.0   0.0   0.001   0.025   0.0   0.2   0.374   0.418   0.497   0.52   0.179   0.309   0.411   0.495   0.518   0.246   0.327   0.43   0.5   0.519   0.393   0.421   0.453   0.505   0.522   0.339   0.457   0.444   0.504   0.523   0.164   0.309   0.411   0.493   0.518   0.172   0.297   0.416   0.495   0.516   0.266   0.338   0.437   0.5   0.52   0.312   0.41   0.443   0.5   0.522   0.201   0.381   0.425   0.497   0.521   0.173   0.329   0.43   0.495   0.519   0.21   0.339   0.437   0.498   0.52   0.306   0.383   0.441   0.499   0.523   0.399   0.44   0.498   0.523   0.18   0.357   0.432   0.496   0.521   0.267   0.423   0.453   0.5   0.522   0.307   0.411   0.443   0.499   0.522   0.315   0.399   0.44   0.499   0.523   0.28   0.402   0.445   0.498   0.522   0.248   0.416   0.456   0.5   0.521   0.314   0.457   0.444   0.5   0.522   0.263   0.381   0.425   0.498   0.521   0.279   0.357   0.432   0.498   0.521   0.333   0.415   0.455   0.502   0.521   0.396   0.477   0.467   0.505   0.523   0.0   -0.0   0.001   -0.005   0.0   -0.0   0.001   -0.007   0.0   -0.0   -0.0   -0.002   0.0   -0.0   0.001   -0.003   0.0   -0.0   0.001   -0.007   0.0   0.0   -0.0   -0.008   -0.0   -0.0   -0.001   -0.016   -0.0   -0.0   0.0   -0.012   0.0   -0.0   -0.0   -0.002   -0.0   -0.0   -0.001   -0.016   -0.0   -0.0   -0.001   -0.019   0.0   -0.0   0.001   -0.008   0.0   -0.0   0.001   -0.003   -0.0   -0.0   0.0   -0.012   0.0   -0.0   0.001   -0.008   0.001   -0.0   0.001   0.001
