Poscar file generated with pyiron
1.0
12.223000000000001 0.000000000000000 0.000000000000000
6.093000000000000 10.553385570000000 0.000000000000000
0.000000000000000 0.000000000000000 34.984400850000000
N Nb Ni Ti
64 1 124 64
Selective dynamics
Direct
0.125000000000000 0.125000000000000 0.052677800000000 F F F
0.041666670000000 0.041666670000000 0.122914900000000 F F F
0.208708700000000 0.208533060000000 0.190944530000000 T T T
0.124810580000000 0.124692960000000 0.254078920000000 T T T
0.125000000000000 0.375000000000000 0.052677800000000 F F F
0.041666670000000 0.291666670000000 0.122914900000000 F F F
0.208192160000000 0.459467130000000 0.191865770000000 T T T
0.125246560000000 0.375469780000000 0.255054500000000 T T T
0.125000000000000 0.625000000000000 0.052677800000000 F F F
0.041666670000000 0.541666670000000 0.122914900000000 F F F
0.208017290000000 0.708100400000000 0.191978420000000 T T T
0.125711940000000 0.626047750000000 0.259217710000000 T T T
0.125000000000000 0.875000000000000 0.052677800000000 F F F
0.041666670000000 0.791666670000000 0.122914900000000 F F F
0.208299700000000 0.957078450000000 0.191480250000000 T T T
0.125530620000000 0.871494070000000 0.257495670000000 T T T
0.375000000000000 0.125000000000000 0.052677800000000 F F F
0.291666670000000 0.041666670000000 0.122914900000000 F F F
0.459556200000000 0.208110520000000 0.191885030000000 T T T
0.375681770000000 0.125065110000000 0.255076330000000 T T T
0.375000000000000 0.375000000000000 0.052677800000000 F F F
0.291666670000000 0.291666670000000 0.122914900000000 F F F
0.458464800000000 0.458402450000000 0.191913670000000 T T T
0.377357750000000 0.377347770000000 0.258817460000000 T T T
0.375000000000000 0.625000000000000 0.052677800000000 F F F
0.291666670000000 0.541666670000000 0.122914900000000 F F F
0.458814820000000 0.707727430000000 0.191929680000000 T T T
0.377622730000000 0.621876760000000 0.260619200000000 T T T
0.375000000000000 0.875000000000000 0.052677800000000 F F F
0.291666670000000 0.791666670000000 0.122914900000000 F F F
0.460121900000000 0.957267040000000 0.191691000000000 T T T
0.376539610000000 0.872654040000000 0.256318170000000 T T T
0.625000000000000 0.125000000000000 0.052677800000000 F F F
0.541666670000000 0.041666670000000 0.122914900000000 F F F
0.708081120000000 0.207990320000000 0.192012200000000 T T T
0.626241450000000 0.125484270000000 0.259312330000000 T T T
0.625000000000000 0.375000000000000 0.052677800000000 F F F
0.541666670000000 0.291666670000000 0.122914900000000 F F F
0.707700310000000 0.458784010000000 0.191948140000000 T T T
0.621806580000000 0.377596200000000 0.260639440000000 T T T
0.625000000000000 0.625000000000000 0.052677800000000 F F F
0.541666670000000 0.541666670000000 0.122914900000000 F F F
0.708627480000000 0.708616440000000 0.192037220000000 T T T
0.623944400000000 0.624013350000000 0.259858140000000 T T T
0.625000000000000 0.875000000000000 0.052677800000000 F F F
0.541666670000000 0.791666670000000 0.122914900000000 F F F
0.708991460000000 0.957718390000000 0.192157140000000 T T T
0.628153250000000 0.872648610000000 0.259265530000000 T T T
0.875000000000000 0.125000000000000 0.052677800000000 F F F
0.791666670000000 0.041666670000000 0.122914900000000 F F F
0.957135270000000 0.208209630000000 0.191488990000000 T T T
0.871714330000000 0.125369620000000 0.257473490000000 T T T
0.875000000000000 0.375000000000000 0.052677800000000 F F F
0.791666670000000 0.291666670000000 0.122914900000000 F F F
0.957326390000000 0.459996350000000 0.191698540000000 T T T
0.872688310000000 0.376435650000000 0.256281850000000 T T T
0.875000000000000 0.625000000000000 0.052677800000000 F F F
0.791666670000000 0.541666670000000 0.122914900000000 F F F
0.957752520000000 0.708938970000000 0.192157560000000 T T T
0.872708980000000 0.628041150000000 0.259233840000000 T T T
0.875000000000000 0.875000000000000 0.052677800000000 F F F
0.791666670000000 0.791666670000000 0.122914900000000 F F F
0.957609130000000 0.957570800000000 0.192037120000000 T T T
0.874113070000000 0.874052440000000 0.260707980000000 T T T
0.334174680000000 0.731612170000000 0.305387410000000 T T T
0.931783740000000 0.133492310000000 0.305649970000000 T T T
0.999443910000000 0.999713100000000 0.363498440000000 T T T
0.066513970000000 0.066505690000000 0.422092930000000 T T T
0.933333330000000 0.133333330000000 0.480553160000000 F F F
0.000000000000000 0.000000000000000 0.538610990000000 F F F
0.930741210000000 0.335255410000000 0.305976410000000 T T T
0.999581730000000 0.200113220000000 0.363762660000000 T T T
0.066673850000000 0.266782920000000 0.422136270000000 T T T
0.933333330000000 0.333333330000000 0.480553160000000 F F F
0.000000000000000 0.200000000000000 0.538610990000000 F F F
0.932711960000000 0.534433850000000 0.305135210000000 T T T
0.999606210000000 0.400719570000000 0.363772300000000 T T T
0.066531740000000 0.467184190000000 0.422030900000000 T T T
0.933333330000000 0.533333330000000 0.480553160000000 F F F
0.000000000000000 0.400000000000000 0.538610990000000 F F F
0.933018670000000 0.734171990000000 0.302281130000000 T T T
0.999633550000000 0.600879320000000 0.363132590000000 T T T
0.066708270000000 0.666846560000000 0.421593500000000 T T T
0.933333330000000 0.733333330000000 0.480553160000000 F F F
0.000000000000000 0.600000000000000 0.538610990000000 F F F
0.932708010000000 0.933324460000000 0.304173110000000 T T T
0.000220530000000 0.799452090000000 0.362352890000000 T T T
0.066395350000000 0.866482290000000 0.421769560000000 T T T
0.933333330000000 0.933333330000000 0.480553160000000 F F F
0.000000000000000 0.800000000000000 0.538610990000000 F F F
0.132706570000000 0.133432570000000 0.306022350000000 T T T
0.199849560000000 0.999851520000000 0.363748040000000 T T T
0.266807560000000 0.066676510000000 0.422118780000000 T T T
0.133333330000000 0.133333330000000 0.480553160000000 F F F
0.200000000000000 0.000000000000000 0.538610990000000 F F F
0.132801040000000 0.335555140000000 0.305917870000000 T T T
0.200014730000000 0.200252070000000 0.363746690000000 T T T
0.266773430000000 0.266830500000000 0.422109530000000 T T T
0.133333330000000 0.333333330000000 0.480553160000000 F F F
0.200000000000000 0.200000000000000 0.538610990000000 F F F
0.133170610000000 0.535052550000000 0.304906690000000 T T T
0.199821210000000 0.400846250000000 0.363757570000000 T T T
0.266705780000000 0.466998360000000 0.421871700000000 T T T
0.133333330000000 0.533333330000000 0.480553160000000 F F F
0.200000000000000 0.400000000000000 0.538610990000000 F F F
0.134033590000000 0.733248880000000 0.301871360000000 T T T
0.200446280000000 0.600537720000000 0.362764260000000 T T T
0.266525160000000 0.666707310000000 0.421818930000000 T T T
0.133333330000000 0.733333330000000 0.480553160000000 F F F
0.200000000000000 0.600000000000000 0.538610990000000 F F F
0.132799370000000 0.932583150000000 0.305636380000000 T T T
0.199746930000000 0.799576330000000 0.363259070000000 T T T
0.266680260000000 0.866501520000000 0.421965750000000 T T T
0.133333330000000 0.933333330000000 0.480553160000000 F F F
0.200000000000000 0.800000000000000 0.538610990000000 F F F
0.335007220000000 0.133394090000000 0.305890560000000 T T T
0.400522870000000 0.999821390000000 0.363749140000000 T T T
0.467112160000000 0.066594570000000 0.422028550000000 T T T
0.333333330000000 0.133333330000000 0.480553160000000 F F F
0.400000000000000 0.000000000000000 0.538610990000000 F F F
0.334086380000000 0.334594020000000 0.306054090000000 T T T
0.400590060000000 0.200040430000000 0.363758920000000 T T T
0.466880170000000 0.266792170000000 0.421884230000000 T T T
0.333333330000000 0.333333330000000 0.480553160000000 F F F
0.400000000000000 0.200000000000000 0.538610990000000 F F F
0.334581440000000 0.533417900000000 0.303174540000000 T T T
0.400301860000000 0.400566740000000 0.363371540000000 T T T
0.466533640000000 0.466725480000000 0.421999630000000 T T T
0.333333330000000 0.533333330000000 0.480553160000000 F F F
0.400000000000000 0.400000000000000 0.538610990000000 F F F
0.400354420000000 0.599578220000000 0.363477740000000 T T T
0.466757470000000 0.666632570000000 0.421958600000000 T T T
0.333333330000000 0.733333330000000 0.480553160000000 F F F
0.400000000000000 0.600000000000000 0.538610990000000 F F F
0.334596130000000 0.931519830000000 0.305955900000000 T T T
0.400373620000000 0.799588570000000 0.363615170000000 T T T
0.467207440000000 0.866447990000000 0.421902340000000 T T T
0.333333330000000 0.933333330000000 0.480553160000000 F F F
0.400000000000000 0.800000000000000 0.538610990000000 F F F
0.534601910000000 0.133632780000000 0.304906810000000 T T T
0.600675790000000 0.999802290000000 0.363128010000000 T T T
0.666820350000000 0.066724090000000 0.421621490000000 T T T
0.533333330000000 0.133333330000000 0.480553160000000 F F F
0.600000000000000 0.000000000000000 0.538610990000000 F F F
0.532951130000000 0.335000360000000 0.303216900000000 T T T
0.600269670000000 0.200587290000000 0.362838110000000 T T T
0.666505760000000 0.266678870000000 0.421844570000000 T T T
0.533333330000000 0.333333330000000 0.480553160000000 F F F
0.600000000000000 0.200000000000000 0.538610990000000 F F F
0.532536470000000 0.533143880000000 0.303013650000000 T T T
0.599306600000000 0.400612540000000 0.363513920000000 T T T
0.666508260000000 0.466824120000000 0.421972950000000 T T T
0.533333330000000 0.533333330000000 0.480553160000000 F F F
0.600000000000000 0.400000000000000 0.538610990000000 F F F
0.533524180000000 0.731972290000000 0.304182200000000 T T T
0.599645300000000 0.599911300000000 0.363254640000000 T T T
0.666748200000000 0.666785530000000 0.421633870000000 T T T
0.533333330000000 0.733333330000000 0.480553160000000 F F F
0.600000000000000 0.600000000000000 0.538610990000000 F F F
0.533984760000000 0.933262640000000 0.305071760000000 T T T
0.600726010000000 0.799417750000000 0.362713350000000 T T T
0.667114590000000 0.866489370000000 0.421514840000000 T T T
0.533333330000000 0.933333330000000 0.480553160000000 F F F
0.600000000000000 0.800000000000000 0.538610990000000 F F F
0.732612460000000 0.134474130000000 0.302044700000000 T T T
0.799285350000000 0.000386050000000 0.362405250000000 T T T
0.866405970000000 0.066456060000000 0.421789780000000 T T T
0.733333330000000 0.133333330000000 0.480553160000000 F F F
0.800000000000000 0.000000000000000 0.538610990000000 F F F
0.730883850000000 0.334781960000000 0.305426660000000 T T T
0.799274890000000 0.199998080000000 0.363307520000000 T T T
0.866424330000000 0.266663510000000 0.421993000000000 T T T
0.733333330000000 0.333333330000000 0.480553160000000 F F F
0.800000000000000 0.200000000000000 0.538610990000000 F F F
0.731217950000000 0.534221600000000 0.304251760000000 T T T
0.799329710000000 0.400559190000000 0.363637540000000 T T T
0.866382290000000 0.467178750000000 0.421922060000000 T T T
0.733333330000000 0.533333330000000 0.480553160000000 F F F
0.800000000000000 0.400000000000000 0.538610990000000 F F F
0.732985400000000 0.733465920000000 0.300464920000000 T T T
0.799208710000000 0.600899250000000 0.362741470000000 T T T
0.866398100000000 0.667178680000000 0.421523390000000 T T T
0.733333330000000 0.733333330000000 0.480553160000000 F F F
0.800000000000000 0.600000000000000 0.538610990000000 F F F
0.733752370000000 0.933485790000000 0.302344880000000 T T T
0.799711560000000 0.799854460000000 0.361808330000000 T T T
0.866613920000000 0.866601400000000 0.421237520000000 T T T
0.733333330000000 0.933333330000000 0.480553160000000 F F F
0.800000000000000 0.800000000000000 0.538610990000000 F F F
0.041666670000000 0.041666670000000 0.017559250000000 F F F
0.208333330000000 0.208333330000000 0.087796350000000 F F F
0.124773600000000 0.124652710000000 0.158072130000000 T T T
0.040149370000000 0.040614930000000 0.230162000000000 T T T
0.041666670000000 0.291666670000000 0.017559250000000 F F F
0.208333330000000 0.458333330000000 0.087796350000000 F F F
0.125049660000000 0.375683380000000 0.158155910000000 T T T
0.039844270000000 0.293065780000000 0.229635330000000 T T T
0.041666670000000 0.541666670000000 0.017559250000000 F F F
0.208333330000000 0.708333330000000 0.087796350000000 F F F
0.124828880000000 0.625282420000000 0.158074610000000 T T T
0.040983940000000 0.543475040000000 0.230267800000000 T T T
0.041666670000000 0.791666670000000 0.017559250000000 F F F
0.208333330000000 0.958333330000000 0.087796350000000 F F F
0.125091890000000 0.874259590000000 0.158157890000000 T T T
0.041233780000000 0.791382760000000 0.229505160000000 T T T
0.291666670000000 0.041666670000000 0.017559250000000 F F F
0.458333330000000 0.208333330000000 0.087796350000000 F F F
0.375787530000000 0.124972270000000 0.158157830000000 T T T
0.292538560000000 0.040426230000000 0.229603500000000 T T T
0.291666670000000 0.291666670000000 0.017559250000000 F F F
0.458333330000000 0.458333330000000 0.087796350000000 F F F
0.375538130000000 0.375459720000000 0.158055930000000 T T T
0.292997900000000 0.293334560000000 0.229638520000000 T T T
0.291666670000000 0.541666670000000 0.017559250000000 F F F
0.458333330000000 0.708333330000000 0.087796350000000 F F F
0.375202110000000 0.624608670000000 0.158049140000000 T T T
0.292538120000000 0.541748370000000 0.228244220000000 T T T
0.291666670000000 0.791666670000000 0.017559250000000 F F F
0.458333330000000 0.958333330000000 0.087796350000000 F F F
0.375702380000000 0.873798260000000 0.158102640000000 T T T
0.292692360000000 0.789650360000000 0.229164820000000 T T T
0.541666670000000 0.041666670000000 0.017559250000000 F F F
0.708333330000000 0.208333330000000 0.087796350000000 F F F
0.625321470000000 0.124750900000000 0.158083580000000 T T T
0.543061730000000 0.041406940000000 0.230236870000000 T T T
0.541666670000000 0.291666670000000 0.017559250000000 F F F
0.708333330000000 0.458333330000000 0.087796350000000 F F F
0.624607670000000 0.375165860000000 0.158058700000000 T T T
0.541456820000000 0.292777990000000 0.228284880000000 T T T
0.541666670000000 0.541666670000000 0.017559250000000 F F F
0.708333330000000 0.708333330000000 0.087796350000000 F F F
0.624981800000000 0.624986930000000 0.158038210000000 T T T
0.541346880000000 0.541653980000000 0.227661910000000 T T T
0.541666670000000 0.791666670000000 0.017559250000000 F F F
0.708333330000000 0.958333330000000 0.087796350000000 F F F
0.625428960000000 0.874743730000000 0.158076740000000 T T T
0.542079370000000 0.790351170000000 0.229299920000000 T T T
0.791666670000000 0.041666670000000 0.017559250000000 F F F
0.958333330000000 0.208333330000000 0.087796350000000 F F F
0.874275490000000 0.125025530000000 0.158175970000000 T T T
0.790957230000000 0.041643430000000 0.229550280000000 T T T
0.791666670000000 0.291666670000000 0.017559250000000 F F F
0.958333330000000 0.458333330000000 0.087796350000000 F F F
0.873781370000000 0.375653260000000 0.158120590000000 T T T
0.789181570000000 0.293049490000000 0.229198540000000 T T T
0.791666670000000 0.541666670000000 0.017559250000000 F F F
0.958333330000000 0.708333330000000 0.087796350000000 F F F
0.874820930000000 0.625375160000000 0.158085270000000 T T T
0.789836630000000 0.542557160000000 0.229318050000000 T T T
0.791666670000000 0.791666670000000 0.017559250000000 F F F
0.958333330000000 0.958333330000000 0.087796350000000 F F F
0.874886760000000 0.874887670000000 0.157899500000000 T T T
0.791700440000000 0.792140280000000 0.229700930000000 T T T
