POSCAR file written by Ovito Basic 3.0.0
    1.00000000000000
        12.4524250200999997    0.0000000000000000    0.0000157408058710
        -3.1131062549999999    5.3920451819000004   -0.0000039352014677
         0.0000530996979940    0.0000000000000000   40.4697188976000035
Ca   Mg   Al
1    1    1
Cartesian
6.2262054545 8.8300000128e-06  1.9039669849
0.3113441054 0.5391959194  18.3309003343
3.1131124744 5.3920363513  12.0213927741
