Kpoints file generated with pyiron_atomistics
0
Monkhorst_Pack
2 2 1
0 0 0
