SYSTEM=bader_test #jobname
PREC=Accurate
ALGO=Fast
LREAL=.FALSE.
LWAVE=.FALSE.
LORBIT=0
IBRION=-1
NELM=100
NSW=0
ISMEAR=-1
SIGMA=0.1
LCHARG=.TRUE.
LAECHG=.TRUE.
NGX=10
NGY=10
NGZ=10
