Kpoints file generated with pyiron_atomistics
0
Monkhorst_Pack
4 4 4
0 0 0
