Poscar file generated with pyiron
1.0
10.000000000000000 0.000000000000000 0.000000000000000
0.000000000000000 10.000000000000000 0.000000000000000
0.000000000000000 0.000000000000000 10.000000000000000
H O
2 1
Cartesian
0.700000000000000 0.700000000000000 0.000000000000000
-0.700000000000000 0.700000000000000 0.000000000000000
0.000000000000000 0.000000000000000 0.000000000000000
